c "562332.clq"
p edge 245 3664
e 1 17
e 1 18
e 1 19
e 1 21
e 1 22
e 1 23
e 1 24
e 1 25
e 1 27
e 1 28
e 1 32
e 1 33
e 1 34
e 1 36
e 1 37
e 1 38
e 1 41
e 1 42
e 1 45
e 1 46
e 1 47
e 1 49
e 1 53
e 1 64
e 1 74
e 1 82
e 1 93
e 1 94
e 1 95
e 1 98
e 1 101
e 1 117
e 1 121
e 1 124
e 1 129
e 1 138
e 1 148
e 1 149
e 1 182
e 1 205
e 1 219
e 2 17
e 2 18
e 2 19
e 2 20
e 2 21
e 2 22
e 2 23
e 2 26
e 2 30
e 2 36
e 2 40
e 2 48
e 2 52
e 2 54
e 2 58
e 2 65
e 2 67
e 2 72
e 2 87
e 2 92
e 2 96
e 2 123
e 2 126
e 2 127
e 2 165
e 2 170
e 2 181
e 2 192
e 2 214
e 3 17
e 3 18
e 3 19
e 3 20
e 3 21
e 3 27
e 3 36
e 3 44
e 3 46
e 3 50
e 3 79
e 3 88
e 3 110
e 3 135
e 3 138
e 3 139
e 3 140
e 3 148
e 3 152
e 3 157
e 3 185
e 3 212
e 3 219
e 3 236
e 4 17
e 4 18
e 4 20
e 4 21
e 4 22
e 4 26
e 4 27
e 4 28
e 4 29
e 4 30
e 4 32
e 4 33
e 4 34
e 4 38
e 4 42
e 4 43
e 4 53
e 4 55
e 4 65
e 4 69
e 4 75
e 4 81
e 4 89
e 4 92
e 4 102
e 4 106
e 4 110
e 4 111
e 4 122
e 4 124
e 4 131
e 4 135
e 4 138
e 4 162
e 4 163
e 4 171
e 4 176
e 4 181
e 4 203
e 4 211
e 4 219
e 4 231
e 5 17
e 5 18
e 5 19
e 5 20
e 5 21
e 5 23
e 5 24
e 5 25
e 5 27
e 5 30
e 5 31
e 5 33
e 5 34
e 5 36
e 5 39
e 5 45
e 5 47
e 5 49
e 5 72
e 5 75
e 5 79
e 5 82
e 5 86
e 5 97
e 5 109
e 5 132
e 5 144
e 5 162
e 5 168
e 5 200
e 5 215
e 5 217
e 5 221
e 5 229
e 5 232
e 5 236
e 5 238
e 6 17
e 6 18
e 6 20
e 6 21
e 6 24
e 6 25
e 6 26
e 6 27
e 6 29
e 6 38
e 6 51
e 6 59
e 6 76
e 6 80
e 6 99
e 6 101
e 6 108
e 6 110
e 6 111
e 6 135
e 6 136
e 6 151
e 6 155
e 6 174
e 6 184
e 6 204
e 6 206
e 6 207
e 6 212
e 6 213
e 7 17
e 7 18
e 7 19
e 7 21
e 7 22
e 7 23
e 7 24
e 7 28
e 7 29
e 7 31
e 7 33
e 7 36
e 7 38
e 7 46
e 7 49
e 7 59
e 7 73
e 7 74
e 7 78
e 7 83
e 7 93
e 7 102
e 7 106
e 7 114
e 7 138
e 7 140
e 7 144
e 7 147
e 7 149
e 7 150
e 7 162
e 7 181
e 7 185
e 8 17
e 8 18
e 8 19
e 8 20
e 8 22
e 8 27
e 8 28
e 8 29
e 8 31
e 8 35
e 8 36
e 8 37
e 8 40
e 8 43
e 8 46
e 8 49
e 8 53
e 8 57
e 8 58
e 8 65
e 8 66
e 8 67
e 8 68
e 8 72
e 8 80
e 8 91
e 8 95
e 8 104
e 8 105
e 8 134
e 8 140
e 8 141
e 8 151
e 8 158
e 8 163
e 8 165
e 8 179
e 8 180
e 8 181
e 8 182
e 8 194
e 8 196
e 8 199
e 8 202
e 8 204
e 8 223
e 8 224
e 8 243
e 9 17
e 9 18
e 9 19
e 9 20
e 9 21
e 9 22
e 9 23
e 9 26
e 9 33
e 9 43
e 9 44
e 9 54
e 9 57
e 9 61
e 9 85
e 9 100
e 9 114
e 9 133
e 9 135
e 9 148
e 9 169
e 9 172
e 9 173
e 9 183
e 9 190
e 9 201
e 9 237
e 9 239
e 9 243
e 10 17
e 10 18
e 10 19
e 10 20
e 10 21
e 10 23
e 10 24
e 10 25
e 10 28
e 10 32
e 10 33
e 10 41
e 10 49
e 10 50
e 10 53
e 10 57
e 10 61
e 10 65
e 10 68
e 10 82
e 10 94
e 10 103
e 10 105
e 10 120
e 10 128
e 10 131
e 10 134
e 10 135
e 10 139
e 10 148
e 10 167
e 10 175
e 10 180
e 10 183
e 10 185
e 10 198
e 10 199
e 10 204
e 10 212
e 11 17
e 11 18
e 11 19
e 11 20
e 11 22
e 11 23
e 11 24
e 11 25
e 11 26
e 11 27
e 11 28
e 11 30
e 11 31
e 11 35
e 11 36
e 11 37
e 11 38
e 11 42
e 11 44
e 11 48
e 11 50
e 11 52
e 11 54
e 11 55
e 11 59
e 11 60
e 11 61
e 11 67
e 11 68
e 11 70
e 11 75
e 11 81
e 11 85
e 11 109
e 11 110
e 11 116
e 11 119
e 11 126
e 11 139
e 11 141
e 11 142
e 11 143
e 11 149
e 11 152
e 11 159
e 11 162
e 11 167
e 11 172
e 11 181
e 11 187
e 11 200
e 11 217
e 11 231
e 11 244
e 12 17
e 12 19
e 12 20
e 12 21
e 12 22
e 12 23
e 12 30
e 12 32
e 12 38
e 12 42
e 12 44
e 12 46
e 12 52
e 12 53
e 12 54
e 12 57
e 12 60
e 12 75
e 12 83
e 12 86
e 12 88
e 12 89
e 12 91
e 12 94
e 12 105
e 12 106
e 12 113
e 12 116
e 12 139
e 12 140
e 12 143
e 12 148
e 12 156
e 12 169
e 12 170
e 12 176
e 12 198
e 12 210
e 13 17
e 13 18
e 13 19
e 13 20
e 13 21
e 13 24
e 13 25
e 13 26
e 13 32
e 13 39
e 13 41
e 13 47
e 13 49
e 13 54
e 13 56
e 13 61
e 13 62
e 13 94
e 13 99
e 13 102
e 13 105
e 13 110
e 13 144
e 13 160
e 13 184
e 13 198
e 13 208
e 13 219
e 13 228
e 14 17
e 14 18
e 14 19
e 14 22
e 14 24
e 14 25
e 14 26
e 14 29
e 14 30
e 14 31
e 14 36
e 14 44
e 14 48
e 14 56
e 14 60
e 14 64
e 14 66
e 14 91
e 14 95
e 14 97
e 14 114
e 14 116
e 14 133
e 14 136
e 14 146
e 14 166
e 14 174
e 14 193
e 14 212
e 14 221
e 14 223
e 14 224
e 14 225
e 14 228
e 15 17
e 15 18
e 15 19
e 15 20
e 15 22
e 15 23
e 15 24
e 15 25
e 15 28
e 15 30
e 15 32
e 15 35
e 15 37
e 15 40
e 15 43
e 15 46
e 15 50
e 15 52
e 15 53
e 15 64
e 15 68
e 15 69
e 15 70
e 15 72
e 15 86
e 15 87
e 15 92
e 15 94
e 15 101
e 15 108
e 15 119
e 15 137
e 15 140
e 15 141
e 15 144
e 15 145
e 15 203
e 15 213
e 15 217
e 15 225
e 16 17
e 16 18
e 16 19
e 16 20
e 16 21
e 16 22
e 16 23
e 16 25
e 16 27
e 16 28
e 16 31
e 16 35
e 16 37
e 16 39
e 16 45
e 16 48
e 16 49
e 16 51
e 16 62
e 16 66
e 16 72
e 16 73
e 16 77
e 16 96
e 16 123
e 16 139
e 16 152
e 16 162
e 16 185
e 16 216
e 16 226
e 17 18
e 17 19
e 17 20
e 17 21
e 17 22
e 17 23
e 17 24
e 17 25
e 17 26
e 17 28
e 17 29
e 17 30
e 17 31
e 17 33
e 17 34
e 17 35
e 17 36
e 17 37
e 17 38
e 17 39
e 17 40
e 17 41
e 17 42
e 17 43
e 17 44
e 17 45
e 17 47
e 17 50
e 17 51
e 17 52
e 17 53
e 17 55
e 17 61
e 17 63
e 17 64
e 17 65
e 17 70
e 17 74
e 17 75
e 17 76
e 17 77
e 17 78
e 17 83
e 17 86
e 17 87
e 17 91
e 17 98
e 17 99
e 17 100
e 17 103
e 17 105
e 17 111
e 17 113
e 17 117
e 17 119
e 17 122
e 17 123
e 17 124
e 17 127
e 17 128
e 17 130
e 17 142
e 17 144
e 17 147
e 17 155
e 17 160
e 17 166
e 17 169
e 17 171
e 17 175
e 17 178
e 17 180
e 17 183
e 17 187
e 17 190
e 17 195
e 17 201
e 17 202
e 17 207
e 17 208
e 17 213
e 17 219
e 17 221
e 17 224
e 17 230
e 17 231
e 17 234
e 17 236
e 17 239
e 17 241
e 18 19
e 18 20
e 18 21
e 18 22
e 18 23
e 18 24
e 18 25
e 18 26
e 18 27
e 18 28
e 18 30
e 18 31
e 18 32
e 18 33
e 18 34
e 18 37
e 18 38
e 18 39
e 18 41
e 18 43
e 18 46
e 18 47
e 18 48
e 18 50
e 18 51
e 18 53
e 18 55
e 18 56
e 18 58
e 18 59
e 18 60
e 18 65
e 18 66
e 18 70
e 18 71
e 18 74
e 18 76
e 18 77
e 18 82
e 18 83
e 18 85
e 18 89
e 18 90
e 18 91
e 18 94
e 18 96
e 18 106
e 18 107
e 18 110
e 18 114
e 18 118
e 18 120
e 18 123
e 18 126
e 18 133
e 18 142
e 18 146
e 18 149
e 18 161
e 18 164
e 18 166
e 18 168
e 18 170
e 18 173
e 18 175
e 18 177
e 18 178
e 18 182
e 18 195
e 18 196
e 18 198
e 18 199
e 18 200
e 18 206
e 18 207
e 18 208
e 18 211
e 18 216
e 18 218
e 18 224
e 18 236
e 18 237
e 18 243
e 19 20
e 19 21
e 19 22
e 19 23
e 19 24
e 19 25
e 19 26
e 19 27
e 19 28
e 19 29
e 19 30
e 19 32
e 19 33
e 19 34
e 19 35
e 19 36
e 19 39
e 19 40
e 19 41
e 19 56
e 19 57
e 19 58
e 19 59
e 19 60
e 19 63
e 19 64
e 19 65
e 19 67
e 19 70
e 19 71
e 19 72
e 19 73
e 19 79
e 19 81
e 19 88
e 19 89
e 19 90
e 19 94
e 19 96
e 19 99
e 19 103
e 19 108
e 19 109
e 19 114
e 19 116
e 19 118
e 19 124
e 19 125
e 19 132
e 19 136
e 19 138
e 19 142
e 19 143
e 19 146
e 19 153
e 19 158
e 19 165
e 19 168
e 19 200
e 19 201
e 19 202
e 19 205
e 19 206
e 19 209
e 19 210
e 19 216
e 19 217
e 19 218
e 19 233
e 19 242
e 20 21
e 20 22
e 20 23
e 20 24
e 20 25
e 20 26
e 20 27
e 20 28
e 20 29
e 20 30
e 20 33
e 20 34
e 20 35
e 20 36
e 20 37
e 20 39
e 20 40
e 20 42
e 20 43
e 20 44
e 20 45
e 20 47
e 20 48
e 20 50
e 20 51
e 20 52
e 20 55
e 20 57
e 20 59
e 20 60
e 20 63
e 20 65
e 20 66
e 20 68
e 20 71
e 20 73
e 20 74
e 20 77
e 20 80
e 20 86
e 20 88
e 20 89
e 20 90
e 20 91
e 20 96
e 20 98
e 20 100
e 20 105
e 20 106
e 20 107
e 20 110
e 20 114
e 20 115
e 20 119
e 20 122
e 20 127
e 20 128
e 20 131
e 20 132
e 20 138
e 20 140
e 20 146
e 20 149
e 20 151
e 20 152
e 20 155
e 20 156
e 20 160
e 20 173
e 20 175
e 20 176
e 20 177
e 20 184
e 20 188
e 20 197
e 20 201
e 20 209
e 20 210
e 20 215
e 20 220
e 20 221
e 20 231
e 20 232
e 20 237
e 20 239
e 20 240
e 20 243
e 21 22
e 21 23
e 21 24
e 21 25
e 21 26
e 21 28
e 21 29
e 21 33
e 21 36
e 21 37
e 21 38
e 21 39
e 21 41
e 21 43
e 21 49
e 21 50
e 21 51
e 21 52
e 21 54
e 21 55
e 21 59
e 21 61
e 21 69
e 21 72
e 21 75
e 21 76
e 21 77
e 21 79
e 21 80
e 21 84
e 21 86
e 21 88
e 21 97
e 21 98
e 21 99
e 21 100
e 21 101
e 21 103
e 21 105
e 21 108
e 21 112
e 21 114
e 21 117
e 21 126
e 21 129
e 21 130
e 21 133
e 21 134
e 21 137
e 21 141
e 21 143
e 21 147
e 21 148
e 21 152
e 21 156
e 21 160
e 21 169
e 21 174
e 21 177
e 21 180
e 21 182
e 21 186
e 21 192
e 21 193
e 21 200
e 21 204
e 21 208
e 21 210
e 21 211
e 21 217
e 21 229
e 21 231
e 21 239
e 21 240
e 21 241
e 21 244
e 22 23
e 22 24
e 22 25
e 22 26
e 22 27
e 22 28
e 22 29
e 22 31
e 22 32
e 22 33
e 22 34
e 22 35
e 22 37
e 22 40
e 22 41
e 22 43
e 22 44
e 22 45
e 22 48
e 22 49
e 22 50
e 22 52
e 22 54
e 22 58
e 22 59
e 22 61
e 22 63
e 22 67
e 22 68
e 22 70
e 22 75
e 22 76
e 22 77
e 22 82
e 22 84
e 22 85
e 22 90
e 22 92
e 22 93
e 22 101
e 22 102
e 22 105
e 22 113
e 22 114
e 22 116
e 22 123
e 22 124
e 22 125
e 22 126
e 22 129
e 22 130
e 22 133
e 22 134
e 22 138
e 22 139
e 22 144
e 22 147
e 22 151
e 22 152
e 22 160
e 22 161
e 22 163
e 22 169
e 22 174
e 22 185
e 22 187
e 22 190
e 22 191
e 22 194
e 22 199
e 22 200
e 22 201
e 22 217
e 22 218
e 22 223
e 22 224
e 22 235
e 22 237
e 22 238
e 22 242
e 22 245
e 23 24
e 23 25
e 23 26
e 23 27
e 23 28
e 23 29
e 23 30
e 23 32
e 23 33
e 23 34
e 23 35
e 23 36
e 23 37
e 23 39
e 23 41
e 23 42
e 23 43
e 23 44
e 23 45
e 23 46
e 23 47
e 23 50
e 23 51
e 23 53
e 23 54
e 23 56
e 23 57
e 23 61
e 23 67
e 23 68
e 23 71
e 23 75
e 23 76
e 23 79
e 23 82
e 23 85
e 23 99
e 23 100
e 23 101
e 23 103
e 23 108
e 23 114
e 23 129
e 23 132
e 23 164
e 23 171
e 23 175
e 23 178
e 23 179
e 23 180
e 23 185
e 23 187
e 23 188
e 23 199
e 23 202
e 23 207
e 23 221
e 23 226
e 23 227
e 23 235
e 23 239
e 23 241
e 23 243
e 24 26
e 24 27
e 24 29
e 24 30
e 24 31
e 24 32
e 24 34
e 24 35
e 24 43
e 24 45
e 24 47
e 24 48
e 24 52
e 24 53
e 24 54
e 24 60
e 24 66
e 24 67
e 24 70
e 24 80
e 24 82
e 24 84
e 24 93
e 24 103
e 24 108
e 24 112
e 24 115
e 24 131
e 24 140
e 24 147
e 24 148
e 24 152
e 24 166
e 24 173
e 24 175
e 24 179
e 24 180
e 24 183
e 24 191
e 24 204
e 24 208
e 24 212
e 24 215
e 24 216
e 24 218
e 24 226
e 24 231
e 24 232
e 25 26
e 25 27
e 25 28
e 25 29
e 25 30
e 25 31
e 25 32
e 25 35
e 25 39
e 25 41
e 25 42
e 25 44
e 25 49
e 25 56
e 25 58
e 25 60
e 25 63
e 25 64
e 25 65
e 25 66
e 25 67
e 25 69
e 25 79
e 25 91
e 25 99
e 25 105
e 25 111
e 25 122
e 25 125
e 25 134
e 25 137
e 25 138
e 25 139
e 25 146
e 25 149
e 25 150
e 25 156
e 25 158
e 25 160
e 25 162
e 25 167
e 25 169
e 25 175
e 25 180
e 25 186
e 25 195
e 25 196
e 25 213
e 25 219
e 25 220
e 25 223
e 25 226
e 25 244
e 26 27
e 26 29
e 26 31
e 26 32
e 26 33
e 26 34
e 26 37
e 26 38
e 26 39
e 26 41
e 26 42
e 26 45
e 26 47
e 26 55
e 26 56
e 26 60
e 26 62
e 26 63
e 26 70
e 26 77
e 26 78
e 26 79
e 26 88
e 26 91
e 26 92
e 26 97
e 26 103
e 26 104
e 26 106
e 26 107
e 26 110
e 26 118
e 26 120
e 26 121
e 26 122
e 26 127
e 26 130
e 26 134
e 26 140
e 26 157
e 26 159
e 26 166
e 26 170
e 26 171
e 26 173
e 26 184
e 26 187
e 26 192
e 26 200
e 26 203
e 26 205
e 26 206
e 26 209
e 26 224
e 26 228
e 26 236
e 26 239
e 26 240
e 26 243
e 27 29
e 27 30
e 27 31
e 27 32
e 27 39
e 27 46
e 27 47
e 27 48
e 27 50
e 27 52
e 27 53
e 27 55
e 27 56
e 27 57
e 27 59
e 27 63
e 27 72
e 27 73
e 27 75
e 27 78
e 27 81
e 27 86
e 27 88
e 27 89
e 27 96
e 27 98
e 27 107
e 27 111
e 27 113
e 27 118
e 27 126
e 27 138
e 27 157
e 27 164
e 27 182
e 27 189
e 27 195
e 27 197
e 27 221
e 27 240
e 27 241
e 27 244
e 28 29
e 28 31
e 28 34
e 28 36
e 28 37
e 28 38
e 28 39
e 28 40
e 28 43
e 28 45
e 28 46
e 28 48
e 28 49
e 28 50
e 28 51
e 28 54
e 28 55
e 28 57
e 28 58
e 28 62
e 28 63
e 28 67
e 28 68
e 28 69
e 28 70
e 28 71
e 28 72
e 28 74
e 28 80
e 28 81
e 28 83
e 28 90
e 28 97
e 28 98
e 28 99
e 28 100
e 28 103
e 28 104
e 28 107
e 28 108
e 28 111
e 28 112
e 28 118
e 28 121
e 28 122
e 28 124
e 28 129
e 28 132
e 28 139
e 28 140
e 28 149
e 28 150
e 28 152
e 28 153
e 28 154
e 28 156
e 28 158
e 28 164
e 28 168
e 28 169
e 28 170
e 28 183
e 28 185
e 28 186
e 28 189
e 28 199
e 28 209
e 28 210
e 28 216
e 28 218
e 28 229
e 28 232
e 28 238
e 28 243
e 29 30
e 29 31
e 29 33
e 29 34
e 29 38
e 29 40
e 29 42
e 29 58
e 29 61
e 29 62
e 29 63
e 29 65
e 29 67
e 29 73
e 29 74
e 29 80
e 29 82
e 29 85
e 29 88
e 29 89
e 29 97
e 29 104
e 29 112
e 29 113
e 29 115
e 29 118
e 29 119
e 29 121
e 29 131
e 29 133
e 29 138
e 29 146
e 29 158
e 29 163
e 29 165
e 29 178
e 29 198
e 29 204
e 29 210
e 29 233
e 30 31
e 30 32
e 30 33
e 30 34
e 30 35
e 30 36
e 30 38
e 30 39
e 30 40
e 30 42
e 30 45
e 30 48
e 30 49
e 30 61
e 30 63
e 30 70
e 30 73
e 30 74
e 30 76
e 30 78
e 30 84
e 30 87
e 30 88
e 30 97
e 30 104
e 30 115
e 30 125
e 30 131
e 30 134
e 30 141
e 30 145
e 30 146
e 30 150
e 30 154
e 30 166
e 30 171
e 30 178
e 30 182
e 30 186
e 30 205
e 30 214
e 30 217
e 30 220
e 30 227
e 30 237
e 31 32
e 31 34
e 31 35
e 31 38
e 31 39
e 31 42
e 31 43
e 31 44
e 31 49
e 31 55
e 31 60
e 31 65
e 31 66
e 31 71
e 31 72
e 31 74
e 31 93
e 31 101
e 31 109
e 31 120
e 31 137
e 31 140
e 31 146
e 31 147
e 31 161
e 31 162
e 31 165
e 31 166
e 31 174
e 31 176
e 31 187
e 31 190
e 31 200
e 31 202
e 31 207
e 31 214
e 31 216
e 31 217
e 31 234
e 31 243
e 31 244
e 32 35
e 32 39
e 32 40
e 32 41
e 32 42
e 32 43
e 32 48
e 32 50
e 32 51
e 32 54
e 32 55
e 32 57
e 32 58
e 32 59
e 32 62
e 32 65
e 32 68
e 32 69
e 32 73
e 32 75
e 32 76
e 32 77
e 32 78
e 32 79
e 32 80
e 32 81
e 32 82
e 32 83
e 32 89
e 32 93
e 32 96
e 32 100
e 32 101
e 32 102
e 32 107
e 32 129
e 32 131
e 32 140
e 32 142
e 32 149
e 32 153
e 32 154
e 32 155
e 32 159
e 32 166
e 32 177
e 32 179
e 32 188
e 32 190
e 32 194
e 32 195
e 32 203
e 32 204
e 32 205
e 32 210
e 32 211
e 32 220
e 32 222
e 32 223
e 32 230
e 32 232
e 32 242
e 33 34
e 33 35
e 33 36
e 33 37
e 33 40
e 33 41
e 33 45
e 33 46
e 33 47
e 33 57
e 33 58
e 33 59
e 33 62
e 33 63
e 33 65
e 33 66
e 33 67
e 33 68
e 33 69
e 33 73
e 33 74
e 33 76
e 33 80
e 33 88
e 33 89
e 33 90
e 33 108
e 33 109
e 33 117
e 33 128
e 33 130
e 33 134
e 33 145
e 33 146
e 33 155
e 33 160
e 33 162
e 33 171
e 33 172
e 33 178
e 33 186
e 33 208
e 33 212
e 33 225
e 33 228
e 33 230
e 33 236
e 33 238
e 33 239
e 33 242
e 33 244
e 34 35
e 34 38
e 34 40
e 34 41
e 34 42
e 34 46
e 34 54
e 34 55
e 34 56
e 34 61
e 34 76
e 34 86
e 34 92
e 34 93
e 34 99
e 34 111
e 34 113
e 34 115
e 34 116
e 34 136
e 34 146
e 34 160
e 34 188
e 34 190
e 34 202
e 34 204
e 34 212
e 34 222
e 34 225
e 34 233
e 34 240
e 35 37
e 35 40
e 35 41
e 35 42
e 35 45
e 35 50
e 35 53
e 35 54
e 35 55
e 35 58
e 35 59
e 35 66
e 35 68
e 35 71
e 35 83
e 35 84
e 35 87
e 35 90
e 35 95
e 35 99
e 35 119
e 35 128
e 35 132
e 35 136
e 35 150
e 35 152
e 35 153
e 35 157
e 35 160
e 35 194
e 35 211
e 35 212
e 35 214
e 35 216
e 35 227
e 35 229
e 35 230
e 35 232
e 35 239
e 36 37
e 36 38
e 36 40
e 36 42
e 36 44
e 36 45
e 36 51
e 36 52
e 36 53
e 36 61
e 36 62
e 36 63
e 36 64
e 36 67
e 36 68
e 36 69
e 36 70
e 36 71
e 36 74
e 36 87
e 36 93
e 36 97
e 36 98
e 36 101
e 36 102
e 36 112
e 36 114
e 36 117
e 36 119
e 36 122
e 36 125
e 36 127
e 36 137
e 36 142
e 36 149
e 36 154
e 36 157
e 36 166
e 36 170
e 36 176
e 36 177
e 36 184
e 36 189
e 36 193
e 36 215
e 36 217
e 36 218
e 36 223
e 36 227
e 36 229
e 36 231
e 36 240
e 37 40
e 37 44
e 37 45
e 37 47
e 37 51
e 37 52
e 37 54
e 37 58
e 37 60
e 37 79
e 37 80
e 37 82
e 37 85
e 37 86
e 37 88
e 37 92
e 37 93
e 37 103
e 37 110
e 37 112
e 37 114
e 37 132
e 37 135
e 37 137
e 37 141
e 37 146
e 37 150
e 37 153
e 37 154
e 37 155
e 37 161
e 37 164
e 37 174
e 37 183
e 37 191
e 37 196
e 37 202
e 37 221
e 37 231
e 37 234
e 37 235
e 37 240
e 37 245
e 38 41
e 38 43
e 38 44
e 38 45
e 38 48
e 38 52
e 38 56
e 38 64
e 38 69
e 38 71
e 38 77
e 38 78
e 38 80
e 38 83
e 38 84
e 38 94
e 38 95
e 38 107
e 38 110
e 38 117
e 38 124
e 38 125
e 38 130
e 38 133
e 38 135
e 38 146
e 38 151
e 38 155
e 38 156
e 38 161
e 38 165
e 38 181
e 38 182
e 38 185
e 38 188
e 38 197
e 38 203
e 38 207
e 38 213
e 38 214
e 38 216
e 38 225
e 38 238
e 38 241
e 38 242
e 39 47
e 39 52
e 39 55
e 39 56
e 39 57
e 39 59
e 39 63
e 39 66
e 39 67
e 39 74
e 39 79
e 39 81
e 39 84
e 39 97
e 39 100
e 39 102
e 39 106
e 39 117
e 39 126
e 39 130
e 39 133
e 39 134
e 39 141
e 39 147
e 39 148
e 39 153
e 39 154
e 39 158
e 39 159
e 39 160
e 39 166
e 39 169
e 39 171
e 39 188
e 39 192
e 39 199
e 39 200
e 39 201
e 39 204
e 39 205
e 39 206
e 39 211
e 39 218
e 39 219
e 39 223
e 39 227
e 39 239
e 40 43
e 40 44
e 40 46
e 40 51
e 40 53
e 40 54
e 40 55
e 40 57
e 40 58
e 40 60
e 40 62
e 40 65
e 40 67
e 40 75
e 40 85
e 40 87
e 40 88
e 40 89
e 40 90
e 40 94
e 40 98
e 40 99
e 40 102
e 40 104
e 40 113
e 40 120
e 40 121
e 40 128
e 40 134
e 40 135
e 40 143
e 40 144
e 40 150
e 40 157
e 40 162
e 40 166
e 40 170
e 40 174
e 40 177
e 40 180
e 40 186
e 40 195
e 40 202
e 40 203
e 40 222
e 40 227
e 40 233
e 40 239
e 41 46
e 41 48
e 41 53
e 41 68
e 41 72
e 41 73
e 41 76
e 41 77
e 41 79
e 41 80
e 41 81
e 41 82
e 41 86
e 41 87
e 41 89
e 41 90
e 41 91
e 41 92
e 41 95
e 41 98
e 41 111
e 41 113
e 41 117
e 41 128
e 41 130
e 41 131
e 41 150
e 41 154
e 41 155
e 41 161
e 41 170
e 41 172
e 41 174
e 41 182
e 41 183
e 41 188
e 41 190
e 41 191
e 41 192
e 41 194
e 41 196
e 41 201
e 41 205
e 41 206
e 41 222
e 41 224
e 41 232
e 41 233
e 42 44
e 42 46
e 42 47
e 42 48
e 42 49
e 42 51
e 42 59
e 42 64
e 42 66
e 42 67
e 42 69
e 42 70
e 42 76
e 42 90
e 42 91
e 42 97
e 42 105
e 42 121
e 42 122
e 42 125
e 42 134
e 42 135
e 42 136
e 42 142
e 42 144
e 42 145
e 42 156
e 42 157
e 42 159
e 42 176
e 42 195
e 42 216
e 42 219
e 42 238
e 43 53
e 43 58
e 43 64
e 43 73
e 43 74
e 43 81
e 43 93
e 43 95
e 43 106
e 43 109
e 43 121
e 43 122
e 43 126
e 43 131
e 43 137
e 43 164
e 43 167
e 43 172
e 43 220
e 43 234
e 43 235
e 43 236
e 43 243
e 44 46
e 44 47
e 44 49
e 44 51
e 44 57
e 44 61
e 44 62
e 44 64
e 44 66
e 44 77
e 44 80
e 44 82
e 44 85
e 44 87
e 44 92
e 44 95
e 44 96
e 44 97
e 44 101
e 44 104
e 44 113
e 44 116
e 44 123
e 44 125
e 44 128
e 44 129
e 44 137
e 44 163
e 44 170
e 44 178
e 44 179
e 44 180
e 44 186
e 44 192
e 44 193
e 44 208
e 44 211
e 44 215
e 44 233
e 44 235
e 44 236
e 45 50
e 45 64
e 45 67
e 45 69
e 45 70
e 45 75
e 45 103
e 45 104
e 45 109
e 45 136
e 45 156
e 45 160
e 45 181
e 45 200
e 45 218
e 45 236
e 45 240
e 46 47
e 46 52
e 46 56
e 46 62
e 46 63
e 46 74
e 46 84
e 46 89
e 46 93
e 46 95
e 46 99
e 46 100
e 46 115
e 46 134
e 46 141
e 46 143
e 46 144
e 46 145
e 46 154
e 46 179
e 46 180
e 46 182
e 46 191
e 46 192
e 46 205
e 46 220
e 47 48
e 47 50
e 47 51
e 47 60
e 47 62
e 47 68
e 47 100
e 47 101
e 47 105
e 47 118
e 47 119
e 47 127
e 47 133
e 47 149
e 47 168
e 47 178
e 47 180
e 47 194
e 47 218
e 47 220
e 47 235
e 48 49
e 48 55
e 48 59
e 48 61
e 48 63
e 48 64
e 48 69
e 48 72
e 48 77
e 48 82
e 48 86
e 48 90
e 48 91
e 48 94
e 48 96
e 48 108
e 48 111
e 48 113
e 48 117
e 48 118
e 48 125
e 48 135
e 48 140
e 48 141
e 48 145
e 48 147
e 48 162
e 48 165
e 48 192
e 48 201
e 48 202
e 48 210
e 48 231
e 48 234
e 49 56
e 49 71
e 49 72
e 49 77
e 49 80
e 49 89
e 49 96
e 49 107
e 49 123
e 49 134
e 49 156
e 49 164
e 49 180
e 49 211
e 49 223
e 49 225
e 50 51
e 50 57
e 50 60
e 50 64
e 50 88
e 50 104
e 50 113
e 50 115
e 50 119
e 50 136
e 50 140
e 50 143
e 50 153
e 50 155
e 50 156
e 50 172
e 50 176
e 50 182
e 50 187
e 50 196
e 50 216
e 50 224
e 50 225
e 50 233
e 50 235
e 50 245
e 51 52
e 51 62
e 51 65
e 51 66
e 51 69
e 51 75
e 51 77
e 51 80
e 51 83
e 51 85
e 51 90
e 51 96
e 51 106
e 51 115
e 51 123
e 51 124
e 51 135
e 51 143
e 51 150
e 51 159
e 51 179
e 51 183
e 51 185
e 51 202
e 51 203
e 51 208
e 51 214
e 51 233
e 52 60
e 52 74
e 52 76
e 52 78
e 52 81
e 52 86
e 52 92
e 52 103
e 52 105
e 52 106
e 52 107
e 52 112
e 52 115
e 52 118
e 52 127
e 52 129
e 52 133
e 52 135
e 52 146
e 52 185
e 52 190
e 52 196
e 52 198
e 52 234
e 52 238
e 52 242
e 53 54
e 53 56
e 53 64
e 53 70
e 53 71
e 53 73
e 53 84
e 53 85
e 53 100
e 53 104
e 53 111
e 53 122
e 53 128
e 53 133
e 53 142
e 53 145
e 53 154
e 53 160
e 53 170
e 53 171
e 53 172
e 53 177
e 53 184
e 53 213
e 54 56
e 54 57
e 54 58
e 54 59
e 54 68
e 54 70
e 54 71
e 54 77
e 54 78
e 54 84
e 54 89
e 54 90
e 54 96
e 54 97
e 54 116
e 54 117
e 54 120
e 54 121
e 54 151
e 54 168
e 54 175
e 54 183
e 54 191
e 54 194
e 54 200
e 54 204
e 54 206
e 55 56
e 55 62
e 55 78
e 55 79
e 55 82
e 55 84
e 55 86
e 55 90
e 55 92
e 55 98
e 55 116
e 55 142
e 55 160
e 55 163
e 55 178
e 55 182
e 55 188
e 55 192
e 55 197
e 55 212
e 55 233
e 56 58
e 56 65
e 56 85
e 56 91
e 56 92
e 56 101
e 56 103
e 56 109
e 56 120
e 56 131
e 56 141
e 56 143
e 56 152
e 56 163
e 56 167
e 56 169
e 56 178
e 56 181
e 56 194
e 56 196
e 56 227
e 56 228
e 56 234
e 57 60
e 57 71
e 57 80
e 57 91
e 57 92
e 57 107
e 57 108
e 57 109
e 57 115
e 57 120
e 57 123
e 57 128
e 57 147
e 57 149
e 57 152
e 57 153
e 57 154
e 57 166
e 57 173
e 57 194
e 57 197
e 57 203
e 57 220
e 57 225
e 57 228
e 57 237
e 57 239
e 58 61
e 58 62
e 58 63
e 58 64
e 58 75
e 58 81
e 58 94
e 58 99
e 58 100
e 58 112
e 58 115
e 58 120
e 58 124
e 58 127
e 58 128
e 58 140
e 58 148
e 58 175
e 58 181
e 58 191
e 59 96
e 59 108
e 59 113
e 59 130
e 59 137
e 59 173
e 59 184
e 59 189
e 59 226
e 59 241
e 60 61
e 60 71
e 60 78
e 60 95
e 60 96
e 60 103
e 60 111
e 60 119
e 60 122
e 60 129
e 60 132
e 60 159
e 60 163
e 60 166
e 60 174
e 60 176
e 60 184
e 60 191
e 60 196
e 60 197
e 60 210
e 60 219
e 60 223
e 61 62
e 61 69
e 61 71
e 61 72
e 61 76
e 61 83
e 61 85
e 61 88
e 61 108
e 61 118
e 61 154
e 61 156
e 61 167
e 61 168
e 61 219
e 61 232
e 62 69
e 62 85
e 62 98
e 62 102
e 62 107
e 62 113
e 62 121
e 62 129
e 62 145
e 62 148
e 62 150
e 62 162
e 62 163
e 62 170
e 62 171
e 62 174
e 62 207
e 62 229
e 62 235
e 62 242
e 63 81
e 63 111
e 63 137
e 63 153
e 63 157
e 63 163
e 63 191
e 63 201
e 63 215
e 64 66
e 64 72
e 64 73
e 64 78
e 64 81
e 64 84
e 64 87
e 64 92
e 64 97
e 64 105
e 64 109
e 64 125
e 64 163
e 64 167
e 64 171
e 64 178
e 64 187
e 64 190
e 64 198
e 64 203
e 64 204
e 64 211
e 64 214
e 64 242
e 65 66
e 65 70
e 65 78
e 65 84
e 65 104
e 65 108
e 65 109
e 65 126
e 65 130
e 65 159
e 65 177
e 65 185
e 65 216
e 66 73
e 66 75
e 66 77
e 66 83
e 66 88
e 66 93
e 66 95
e 66 109
e 66 122
e 66 128
e 66 130
e 66 163
e 66 186
e 66 192
e 66 195
e 66 204
e 66 219
e 66 224
e 66 225
e 67 68
e 67 69
e 67 73
e 67 82
e 67 83
e 67 104
e 67 112
e 67 125
e 67 126
e 67 138
e 67 140
e 67 143
e 67 144
e 67 168
e 67 186
e 67 192
e 67 213
e 67 233
e 67 236
e 68 79
e 68 87
e 68 89
e 68 97
e 68 105
e 68 111
e 68 125
e 68 131
e 68 137
e 68 176
e 68 199
e 68 201
e 68 218
e 68 219
e 68 226
e 69 71
e 69 72
e 69 74
e 69 78
e 69 82
e 69 83
e 69 84
e 69 87
e 69 93
e 69 96
e 69 102
e 69 108
e 69 109
e 69 112
e 69 115
e 69 120
e 69 121
e 69 133
e 69 137
e 69 146
e 69 158
e 69 195
e 69 200
e 69 211
e 69 224
e 70 87
e 70 90
e 70 94
e 70 135
e 70 161
e 70 165
e 70 168
e 70 172
e 70 178
e 70 189
e 70 221
e 70 232
e 71 76
e 71 83
e 71 86
e 71 87
e 71 118
e 71 147
e 71 149
e 71 171
e 71 213
e 71 235
e 72 73
e 72 76
e 72 78
e 72 79
e 72 81
e 72 83
e 72 97
e 72 98
e 72 100
e 72 108
e 72 109
e 72 119
e 72 120
e 72 121
e 72 124
e 72 136
e 72 143
e 72 147
e 72 151
e 72 157
e 72 159
e 72 164
e 72 167
e 72 177
e 72 185
e 72 189
e 72 191
e 72 198
e 72 208
e 72 223
e 72 237
e 72 241
e 73 79
e 73 84
e 73 85
e 73 86
e 73 103
e 73 110
e 73 130
e 73 132
e 73 145
e 73 156
e 73 172
e 73 177
e 73 181
e 73 184
e 73 185
e 73 209
e 73 221
e 74 75
e 74 79
e 74 81
e 74 83
e 74 91
e 74 96
e 74 102
e 74 110
e 74 115
e 74 116
e 74 123
e 74 128
e 74 139
e 74 158
e 74 161
e 74 165
e 74 172
e 74 183
e 74 189
e 74 203
e 74 216
e 74 222
e 74 225
e 75 78
e 75 100
e 75 116
e 75 117
e 75 143
e 75 153
e 75 173
e 75 190
e 75 241
e 76 95
e 76 121
e 76 126
e 76 133
e 76 150
e 76 153
e 76 155
e 76 161
e 76 176
e 76 194
e 76 222
e 76 226
e 77 84
e 77 90
e 77 91
e 77 109
e 77 115
e 77 123
e 77 148
e 77 163
e 77 183
e 78 81
e 78 88
e 78 94
e 78 105
e 78 127
e 78 145
e 78 148
e 78 159
e 78 161
e 78 173
e 78 186
e 78 188
e 78 190
e 78 212
e 78 214
e 78 218
e 78 243
e 79 86
e 79 98
e 79 107
e 79 131
e 79 212
e 79 236
e 80 85
e 80 92
e 80 101
e 80 106
e 80 117
e 80 129
e 80 130
e 80 143
e 80 152
e 80 159
e 80 179
e 80 193
e 80 205
e 80 221
e 80 231
e 81 107
e 81 121
e 81 125
e 81 159
e 81 169
e 81 173
e 81 174
e 81 199
e 81 215
e 81 227
e 81 230
e 81 236
e 82 87
e 82 95
e 82 97
e 82 101
e 82 116
e 82 126
e 82 127
e 82 132
e 82 133
e 82 203
e 82 209
e 82 214
e 82 229
e 83 93
e 83 98
e 83 99
e 83 106
e 83 109
e 83 116
e 83 118
e 83 121
e 83 122
e 83 123
e 83 126
e 83 132
e 83 136
e 83 139
e 83 145
e 83 146
e 83 151
e 83 159
e 83 165
e 83 186
e 83 196
e 83 206
e 83 207
e 83 209
e 83 222
e 83 223
e 83 225
e 83 230
e 83 231
e 83 234
e 83 236
e 83 239
e 83 242
e 83 245
e 84 87
e 84 89
e 84 104
e 84 111
e 84 112
e 84 114
e 84 127
e 84 130
e 84 138
e 84 141
e 84 153
e 84 157
e 84 173
e 84 177
e 84 179
e 84 181
e 84 184
e 84 186
e 84 202
e 84 209
e 84 210
e 84 226
e 84 229
e 85 98
e 85 106
e 85 113
e 85 127
e 85 152
e 85 167
e 85 228
e 85 229
e 85 230
e 86 92
e 86 94
e 86 101
e 86 122
e 86 123
e 86 127
e 86 137
e 86 145
e 86 161
e 86 162
e 86 164
e 86 167
e 86 177
e 86 178
e 86 179
e 86 209
e 86 215
e 86 243
e 87 103
e 87 113
e 87 139
e 87 144
e 87 157
e 87 158
e 87 181
e 87 188
e 87 196
e 88 94
e 88 95
e 88 102
e 88 110
e 88 111
e 88 116
e 88 119
e 88 127
e 88 169
e 88 197
e 88 199
e 89 93
e 89 95
e 89 102
e 89 103
e 89 110
e 89 118
e 89 120
e 89 128
e 89 132
e 89 135
e 89 137
e 89 142
e 89 153
e 89 161
e 89 163
e 89 167
e 89 172
e 89 206
e 89 235
e 90 91
e 90 106
e 90 111
e 90 113
e 90 114
e 90 157
e 90 158
e 90 168
e 90 171
e 90 173
e 90 186
e 90 209
e 90 227
e 90 237
e 90 243
e 91 93
e 91 94
e 91 99
e 91 101
e 91 115
e 91 124
e 91 129
e 91 131
e 91 132
e 91 139
e 91 141
e 91 150
e 91 173
e 91 174
e 91 196
e 91 204
e 91 208
e 91 211
e 91 221
e 91 230
e 91 231
e 91 242
e 91 243
e 92 104
e 92 120
e 92 121
e 92 148
e 92 176
e 92 201
e 92 239
e 93 95
e 93 98
e 93 99
e 93 106
e 93 116
e 93 129
e 93 136
e 93 138
e 93 147
e 93 152
e 93 165
e 93 203
e 93 224
e 94 102
e 94 112
e 94 117
e 94 119
e 94 124
e 94 130
e 94 164
e 94 174
e 94 180
e 94 187
e 94 188
e 94 192
e 94 237
e 94 245
e 95 100
e 95 134
e 95 207
e 95 208
e 95 215
e 95 232
e 95 241
e 96 102
e 96 104
e 96 114
e 96 119
e 96 126
e 96 204
e 96 235
e 96 242
e 97 105
e 97 106
e 97 116
e 97 122
e 97 145
e 97 146
e 97 172
e 97 173
e 97 174
e 97 185
e 97 193
e 97 211
e 97 237
e 98 118
e 98 141
e 98 147
e 98 160
e 98 176
e 98 214
e 99 100
e 99 102
e 99 107
e 99 108
e 99 120
e 99 132
e 99 139
e 99 145
e 99 155
e 99 156
e 99 160
e 99 165
e 99 189
e 99 215
e 100 117
e 100 151
e 100 175
e 100 184
e 100 189
e 100 197
e 100 231
e 100 245
e 101 104
e 101 126
e 101 142
e 101 194
e 101 207
e 101 217
e 102 107
e 102 112
e 102 115
e 102 117
e 102 126
e 102 127
e 102 129
e 102 137
e 102 142
e 102 191
e 102 201
e 102 232
e 103 107
e 103 112
e 103 137
e 103 144
e 103 149
e 103 167
e 103 190
e 103 197
e 103 207
e 103 219
e 103 234
e 104 117
e 104 118
e 104 128
e 104 133
e 104 184
e 105 119
e 105 123
e 105 144
e 105 171
e 105 220
e 105 234
e 106 110
e 106 122
e 106 123
e 106 145
e 106 150
e 106 164
e 106 166
e 106 179
e 106 183
e 106 212
e 106 229
e 106 230
e 106 238
e 106 241
e 107 132
e 107 135
e 107 155
e 107 189
e 107 199
e 108 110
e 108 112
e 108 118
e 108 124
e 108 131
e 108 147
e 108 164
e 108 172
e 108 182
e 108 188
e 108 205
e 109 119
e 109 131
e 109 133
e 109 150
e 109 155
e 109 176
e 109 186
e 109 188
e 110 114
e 110 120
e 110 124
e 110 151
e 110 157
e 110 158
e 110 178
e 110 226
e 110 235
e 110 242
e 111 112
e 111 114
e 111 120
e 111 128
e 111 148
e 111 151
e 111 158
e 111 161
e 111 185
e 111 189
e 111 198
e 111 218
e 111 221
e 111 226
e 111 229
e 111 234
e 112 168
e 112 173
e 112 176
e 112 183
e 112 187
e 112 195
e 112 199
e 112 206
e 112 240
e 113 124
e 113 154
e 113 155
e 113 156
e 113 161
e 113 175
e 113 192
e 113 193
e 113 194
e 113 209
e 113 222
e 113 238
e 113 240
e 114 138
e 114 139
e 114 141
e 114 170
e 115 125
e 115 129
e 115 134
e 115 152
e 115 158
e 115 187
e 115 191
e 115 208
e 116 121
e 116 124
e 116 130
e 116 132
e 116 143
e 116 145
e 116 151
e 116 153
e 116 195
e 116 215
e 116 228
e 116 239
e 116 240
e 116 245
e 117 125
e 117 135
e 117 149
e 117 152
e 117 171
e 117 183
e 117 188
e 117 197
e 117 198
e 117 206
e 117 210
e 117 229
e 118 123
e 118 148
e 118 177
e 118 178
e 118 213
e 118 234
e 119 125
e 119 138
e 119 153
e 119 154
e 119 156
e 119 180
e 119 183
e 119 189
e 119 195
e 119 216
e 119 218
e 119 219
e 119 225
e 119 227
e 119 231
e 119 240
e 120 136
e 120 148
e 120 163
e 120 166
e 120 223
e 121 127
e 121 134
e 121 142
e 121 143
e 121 156
e 121 189
e 121 215
e 121 228
e 121 245
e 122 151
e 122 158
e 122 177
e 122 190
e 122 208
e 122 226
e 122 228
e 123 131
e 123 175
e 123 180
e 123 194
e 123 201
e 123 220
e 123 221
e 123 238
e 124 139
e 124 158
e 124 164
e 124 192
e 124 196
e 124 203
e 124 220
e 124 236
e 125 129
e 125 149
e 125 164
e 125 205
e 125 219
e 125 222
e 126 142
e 126 144
e 126 182
e 126 187
e 126 194
e 126 218
e 126 239
e 127 136
e 127 139
e 127 140
e 127 144
e 127 180
e 128 136
e 128 147
e 128 190
e 128 202
e 128 217
e 128 223
e 128 227
e 129 141
e 129 167
e 129 168
e 129 207
e 130 143
e 130 151
e 130 161
e 130 167
e 130 168
e 130 182
e 130 187
e 130 217
e 131 136
e 131 138
e 131 142
e 131 150
e 131 154
e 131 161
e 131 193
e 131 201
e 131 207
e 131 221
e 131 238
e 132 144
e 132 154
e 132 159
e 132 171
e 132 184
e 132 212
e 132 215
e 132 230
e 133 159
e 133 160
e 133 178
e 133 193
e 133 199
e 134 187
e 134 226
e 135 136
e 135 189
e 135 191
e 135 192
e 135 198
e 135 200
e 135 222
e 136 142
e 136 157
e 136 170
e 136 221
e 136 235
e 136 240
e 137 141
e 137 147
e 137 149
e 137 151
e 137 155
e 137 164
e 137 200
e 138 176
e 138 181
e 138 206
e 138 214
e 138 224
e 138 225
e 138 234
e 138 235
e 138 236
e 138 245
e 139 153
e 139 165
e 139 172
e 139 182
e 139 210
e 139 223
e 139 231
e 139 245
e 140 162
e 140 169
e 140 181
e 140 189
e 140 224
e 141 150
e 141 193
e 141 198
e 141 205
e 141 232
e 142 171
e 142 185
e 142 239
e 143 193
e 143 206
e 143 217
e 143 244
e 144 172
e 144 179
e 144 190
e 144 213
e 144 223
e 144 237
e 144 245
e 145 163
e 145 175
e 145 179
e 145 184
e 145 201
e 145 218
e 145 222
e 146 151
e 146 177
e 146 179
e 146 191
e 146 195
e 146 204
e 146 207
e 146 222
e 146 244
e 147 155
e 147 169
e 147 209
e 148 168
e 148 202
e 148 226
e 148 243
e 149 162
e 149 169
e 149 175
e 149 179
e 149 193
e 149 198
e 149 215
e 149 228
e 149 229
e 150 165
e 150 167
e 150 193
e 150 194
e 151 154
e 151 162
e 151 165
e 151 210
e 151 238
e 152 157
e 152 168
e 152 170
e 152 214
e 152 222
e 152 232
e 153 162
e 153 209
e 154 157
e 154 166
e 154 170
e 154 187
e 154 207
e 154 226
e 154 229
e 155 196
e 155 200
e 155 206
e 155 211
e 155 212
e 155 229
e 156 158
e 156 230
e 156 243
e 156 244
e 157 159
e 157 167
e 157 173
e 157 197
e 157 207
e 158 164
e 158 169
e 158 170
e 158 172
e 158 186
e 158 194
e 158 201
e 158 205
e 158 213
e 158 214
e 158 216
e 158 228
e 158 238
e 158 241
e 158 245
e 159 165
e 159 208
e 159 237
e 160 193
e 161 168
e 161 175
e 161 176
e 161 197
e 161 212
e 161 244
e 162 191
e 162 195
e 162 210
e 162 224
e 162 244
e 163 169
e 163 182
e 163 205
e 163 209
e 163 221
e 163 231
e 163 233
e 163 245
e 164 220
e 164 244
e 165 227
e 166 174
e 166 177
e 166 186
e 166 211
e 166 214
e 166 220
e 166 232
e 166 245
e 167 197
e 167 209
e 167 240
e 168 174
e 168 196
e 168 220
e 168 233
e 169 175
e 169 199
e 169 234
e 170 181
e 170 209
e 170 211
e 170 224
e 170 227
e 171 184
e 171 213
e 171 242
e 172 187
e 172 203
e 173 179
e 173 191
e 173 197
e 173 213
e 173 214
e 173 225
e 174 202
e 174 235
e 175 193
e 175 205
e 177 217
e 177 241
e 177 245
e 178 184
e 178 195
e 178 197
e 178 215
e 178 219
e 178 230
e 178 244
e 179 181
e 179 188
e 179 190
e 179 200
e 181 197
e 181 218
e 181 230
e 182 183
e 183 196
e 183 216
e 184 193
e 184 198
e 184 210
e 184 226
e 184 242
e 185 188
e 185 216
e 185 233
e 186 206
e 186 230
e 187 198
e 187 223
e 187 240
e 188 189
e 188 198
e 188 220
e 189 213
e 189 245
e 190 203
e 191 192
e 191 199
e 191 211
e 193 195
e 193 215
e 193 227
e 193 233
e 193 244
e 194 202
e 194 222
e 195 210
e 195 225
e 196 213
e 196 230
e 197 199
e 197 203
e 197 233
e 197 240
e 198 205
e 198 206
e 199 208
e 199 217
e 200 202
e 200 214
e 200 232
e 201 227
e 201 236
e 202 204
e 202 213
e 202 222
e 203 244
e 204 241
e 205 208
e 205 220
e 205 228
e 206 212
e 207 238
e 208 228
e 209 235
e 211 217
e 211 238
e 214 222
e 214 228
e 215 227
e 216 229
e 216 234
e 216 241
e 217 224
e 217 225
e 217 237
e 219 228
e 219 232
e 219 243
e 221 230
e 221 238
e 223 226
e 223 244
e 225 241
e 225 242
e 229 233
e 231 242
e 233 234
e 233 237
e 234 237
e 235 237
e 239 241
